jobs  (incl. supersource/sink ):	102
RESOURCES
- renewable                 : 2 R
- nonrenewable              : 4 N
- doubly constrained        : 0 D
************************************************************************
PRECEDENCE RELATIONS:
jobnr.    #modes  #successors   successors
1	1	15		2 3 4 5 6 8 9 10 13 15 17 19 20 26 31 
2	3	11		51 41 38 36 32 27 25 21 14 11 7 
3	3	10		47 43 41 40 38 37 35 27 21 12 
4	3	13		48 46 44 42 41 39 37 36 30 29 28 27 18 
5	3	14		56 50 49 47 46 44 42 40 39 37 36 33 23 22 
6	3	13		59 55 51 47 46 45 44 40 39 35 28 27 21 
7	3	11		59 48 46 45 44 39 34 33 30 28 18 
8	3	9		51 47 43 36 35 30 24 23 16 
9	3	10		51 50 48 44 43 42 37 36 24 22 
10	3	15		61 59 56 54 51 50 49 48 46 45 44 43 39 38 27 
11	3	15		69 61 59 57 56 54 53 50 48 47 45 42 40 39 37 
12	3	15		73 63 61 58 56 55 52 51 49 48 45 44 36 33 32 
13	3	17		101 73 69 63 57 56 54 53 52 50 48 47 46 45 44 42 40 
14	3	15		101 73 68 63 60 59 58 57 54 53 49 46 45 42 35 
15	3	11		101 63 61 60 58 55 51 48 46 42 24 
16	3	10		101 61 59 56 48 46 45 42 38 27 
17	3	12		101 73 62 58 56 55 54 53 48 47 40 38 
18	3	12		73 68 63 62 58 57 55 54 53 47 40 35 
19	3	10		78 63 62 56 55 54 50 48 47 27 
20	3	9		63 61 56 51 48 47 45 42 30 
21	3	10		73 67 63 60 57 54 52 48 42 30 
22	3	13		101 73 70 68 67 62 61 59 58 55 52 45 38 
23	3	13		101 73 69 67 65 64 63 60 58 57 54 48 45 
24	3	16		100 78 77 75 73 70 69 68 65 64 62 59 57 56 54 53 
25	3	13		101 78 73 70 69 68 65 64 63 61 57 56 46 
26	3	14		101 100 78 77 75 74 70 69 67 62 58 57 54 53 
27	3	13		100 75 73 70 69 68 67 65 64 60 58 57 53 
28	3	9		74 70 69 68 67 66 64 57 43 
29	3	9		100 78 69 67 64 57 53 52 47 
30	3	11		101 100 99 78 77 74 70 68 65 53 50 
31	3	5		76 66 63 57 41 
32	3	12		100 99 78 77 75 70 68 67 65 64 57 53 
33	3	11		78 77 75 74 70 69 68 65 64 57 53 
34	3	11		96 74 73 72 71 69 68 67 65 64 63 
35	3	10		100 78 75 71 69 66 65 61 56 52 
36	3	11		101 95 94 78 77 76 66 64 62 60 59 
37	3	9		100 78 77 75 73 67 64 62 52 
38	3	8		96 76 69 66 65 64 63 57 
39	3	7		101 74 68 67 64 63 52 
40	3	14		100 99 98 96 78 77 76 75 72 71 67 66 65 64 
41	3	11		100 96 78 77 75 74 72 65 64 62 61 
42	3	10		100 76 75 74 72 70 66 65 64 62 
43	3	10		100 97 96 79 77 75 72 65 62 58 
44	3	12		99 95 93 79 78 77 75 72 71 70 68 66 
45	3	12		100 99 98 97 96 93 78 77 75 72 71 66 
46	3	11		100 99 97 96 94 88 74 72 71 67 66 
47	3	6		99 95 77 75 65 60 
48	3	9		99 95 90 86 85 75 74 70 68 
49	3	10		97 96 93 89 77 76 75 72 71 65 
50	3	6		97 96 90 75 71 58 
51	3	8		97 96 95 89 77 75 74 65 
52	3	15		99 98 96 95 94 92 91 90 89 88 84 80 79 76 72 
53	3	10		98 97 96 95 88 84 79 72 71 66 
54	3	10		98 96 95 94 93 88 84 72 71 66 
55	3	8		95 92 91 84 80 77 72 64 
56	3	7		97 96 89 88 74 72 67 
57	3	9		95 93 89 88 87 84 79 72 71 
58	3	13		98 95 93 92 91 89 88 86 85 84 82 81 76 
59	3	11		99 96 90 88 87 86 85 84 82 80 74 
60	3	8		97 96 92 89 88 80 74 72 
61	3	13		99 95 94 92 91 90 89 87 84 83 82 80 79 
62	3	8		98 90 89 88 87 86 85 71 
63	3	8		100 91 90 86 85 83 77 75 
64	3	10		97 93 90 89 88 87 86 83 82 79 
65	3	10		94 91 90 87 86 85 84 83 82 80 
66	3	9		90 89 87 86 85 83 82 81 80 
67	3	7		95 90 87 86 84 80 79 
68	3	6		98 92 91 84 80 76 
69	3	7		99 98 94 92 84 82 80 
70	3	6		89 88 83 82 81 80 
71	3	5		92 91 82 81 80 
72	3	4		86 85 83 82 
73	3	4		99 85 84 80 
74	3	3		93 83 79 
75	3	3		94 84 80 
76	3	2		87 83 
77	3	2		88 81 
78	3	2		85 82 
79	3	1		81 
80	3	1		102 
81	3	1		102 
82	3	1		102 
83	3	1		102 
84	3	1		102 
85	3	1		102 
86	3	1		102 
87	3	1		102 
88	3	1		102 
89	3	1		102 
90	3	1		102 
91	3	1		102 
92	3	1		102 
93	3	1		102 
94	3	1		102 
95	3	1		102 
96	3	1		102 
97	3	1		102 
98	3	1		102 
99	3	1		102 
100	3	1		102 
101	3	1		102 
102	1	0		
************************************************************************
REQUESTS/DURATIONS
jobnr.	mode	dur	R1	R2	N1	N2	N3	N4	
------------------------------------------------------------------------
1	1	0	0	0	0	0	0	0	
2	1	6	8	8	7	9	5	4	
	2	7	8	6	6	6	4	3	
	3	8	6	5	5	5	4	3	
3	1	5	8	6	6	5	8	7	
	2	7	3	4	4	4	5	7	
	3	8	1	2	2	3	3	3	
4	1	5	9	8	2	6	9	9	
	2	6	9	6	1	6	5	9	
	3	7	7	2	1	2	4	9	
5	1	2	9	8	7	8	8	6	
	2	4	7	5	3	6	7	5	
	3	6	5	3	1	2	5	5	
6	1	2	7	8	9	4	6	7	
	2	6	6	6	6	4	5	5	
	3	9	4	3	2	4	3	5	
7	1	3	7	8	6	10	8	9	
	2	9	4	8	6	10	8	6	
	3	10	3	8	6	10	7	5	
8	1	6	7	5	8	8	5	10	
	2	9	7	4	3	3	4	5	
	3	10	6	4	2	1	4	3	
9	1	7	5	6	8	7	6	10	
	2	8	2	6	5	3	5	8	
	3	9	2	5	2	1	2	7	
10	1	2	6	4	4	7	9	5	
	2	3	5	4	3	6	7	4	
	3	4	5	4	3	5	5	4	
11	1	1	5	9	8	5	8	6	
	2	6	5	5	5	3	6	6	
	3	10	5	5	5	2	6	4	
12	1	1	7	6	8	6	9	6	
	2	9	6	6	8	6	8	6	
	3	10	5	6	6	3	8	5	
13	1	2	4	5	4	9	8	6	
	2	7	4	4	3	8	8	5	
	3	10	4	4	2	8	8	4	
14	1	1	7	8	8	4	7	3	
	2	4	5	8	7	4	5	3	
	3	7	3	8	7	3	3	2	
15	1	2	9	8	5	5	3	6	
	2	3	9	4	4	5	2	5	
	3	8	8	3	3	4	2	3	
16	1	6	5	3	3	4	7	7	
	2	7	2	2	3	4	6	7	
	3	9	1	2	3	4	6	6	
17	1	4	7	5	6	4	3	7	
	2	5	7	5	6	4	3	5	
	3	10	7	1	6	4	1	5	
18	1	2	6	5	9	7	4	5	
	2	4	6	4	8	7	4	5	
	3	6	5	4	8	3	3	5	
19	1	5	5	10	8	8	10	6	
	2	6	5	8	5	7	4	5	
	3	10	4	7	2	7	4	4	
20	1	4	5	6	9	7	8	4	
	2	8	5	6	6	7	7	3	
	3	9	5	4	4	3	6	3	
21	1	1	7	8	8	8	5	4	
	2	6	6	7	7	7	3	4	
	3	7	6	7	6	6	2	2	
22	1	4	6	6	8	5	5	7	
	2	8	4	5	8	4	5	5	
	3	9	4	5	8	4	5	4	
23	1	7	8	9	9	9	8	7	
	2	8	7	9	8	8	8	6	
	3	9	3	9	7	7	6	6	
24	1	2	2	8	10	5	8	10	
	2	9	1	8	7	5	6	6	
	3	10	1	8	4	4	3	5	
25	1	1	4	10	5	4	7	5	
	2	7	3	7	4	3	6	4	
	3	10	2	4	3	2	5	4	
26	1	1	4	7	8	8	8	4	
	2	2	2	6	8	7	8	4	
	3	3	1	4	6	5	7	1	
27	1	3	10	3	8	6	6	7	
	2	4	6	3	7	5	5	4	
	3	9	4	3	7	5	4	4	
28	1	3	10	6	10	5	8	9	
	2	7	10	4	8	5	7	7	
	3	10	10	4	8	5	5	5	
29	1	3	6	10	9	9	7	5	
	2	4	5	6	8	9	5	4	
	3	5	5	6	8	9	4	3	
30	1	6	8	5	7	9	6	7	
	2	7	8	5	5	6	5	5	
	3	8	7	4	4	6	3	5	
31	1	2	7	6	10	8	6	8	
	2	3	7	5	6	7	5	6	
	3	10	7	5	4	7	3	6	
32	1	6	9	3	4	4	6	8	
	2	8	6	3	4	4	5	7	
	3	10	4	3	3	2	4	7	
33	1	4	9	8	6	9	6	7	
	2	5	7	7	3	7	5	7	
	3	8	6	7	1	3	5	7	
34	1	4	7	7	1	2	2	6	
	2	5	6	5	1	2	2	4	
	3	6	6	3	1	1	2	3	
35	1	4	6	8	4	3	3	7	
	2	6	4	8	4	2	2	6	
	3	9	4	4	4	2	2	4	
36	1	5	5	9	4	6	4	5	
	2	7	4	5	3	4	4	5	
	3	8	3	3	3	2	4	1	
37	1	2	9	6	5	10	10	7	
	2	5	9	5	2	10	6	6	
	3	10	9	4	2	10	6	5	
38	1	1	3	6	7	6	7	5	
	2	4	3	4	3	6	7	3	
	3	8	3	4	3	6	6	1	
39	1	6	8	10	8	3	7	8	
	2	7	5	9	3	2	6	5	
	3	10	5	8	1	2	6	5	
40	1	2	10	1	8	7	4	10	
	2	8	10	1	7	6	4	8	
	3	9	10	1	6	2	4	8	
41	1	4	9	6	3	4	9	8	
	2	5	9	6	3	4	7	5	
	3	7	8	6	3	2	6	2	
42	1	3	9	7	2	3	6	9	
	2	7	4	6	1	3	4	9	
	3	9	3	4	1	2	4	9	
43	1	5	3	3	7	9	8	1	
	2	6	2	2	3	6	7	1	
	3	9	2	1	1	4	7	1	
44	1	4	10	10	4	10	7	7	
	2	8	6	9	2	9	7	5	
	3	9	5	8	1	9	4	4	
45	1	2	7	8	10	8	8	6	
	2	8	5	7	7	7	5	5	
	3	10	4	7	7	4	4	5	
46	1	2	8	8	8	6	6	3	
	2	9	7	7	7	5	5	3	
	3	10	6	6	4	5	4	3	
47	1	4	3	8	10	4	8	5	
	2	7	2	6	9	4	7	4	
	3	9	1	3	8	4	7	3	
48	1	1	6	7	7	8	1	4	
	2	6	5	7	6	7	1	4	
	3	7	5	7	6	7	1	3	
49	1	4	8	7	8	4	3	6	
	2	8	7	6	7	4	3	3	
	3	10	5	6	6	3	2	3	
50	1	4	8	8	1	5	3	8	
	2	6	7	5	1	3	3	6	
	3	8	2	5	1	2	1	6	
51	1	6	8	9	9	7	10	9	
	2	9	8	7	7	7	8	9	
	3	10	7	5	7	6	6	9	
52	1	7	4	7	8	5	9	8	
	2	8	3	5	7	4	5	8	
	3	9	1	3	7	4	2	7	
53	1	1	6	9	7	8	10	5	
	2	2	4	9	4	3	8	3	
	3	4	3	9	4	2	8	3	
54	1	3	10	8	7	10	10	10	
	2	6	9	4	6	8	9	9	
	3	9	9	3	6	7	9	9	
55	1	2	7	7	7	6	8	5	
	2	6	4	6	4	5	7	5	
	3	9	3	5	4	3	4	3	
56	1	1	6	5	9	8	8	5	
	2	8	6	2	6	7	6	3	
	3	10	4	1	4	5	5	1	
57	1	8	7	4	10	7	10	8	
	2	9	6	4	8	6	8	6	
	3	10	3	4	7	3	8	6	
58	1	1	6	7	1	10	6	7	
	2	3	3	6	1	8	6	7	
	3	7	3	6	1	6	5	6	
59	1	6	8	2	8	9	5	5	
	2	8	7	2	7	8	3	4	
	3	10	6	2	7	8	3	4	
60	1	5	4	5	4	7	6	8	
	2	9	4	5	3	7	5	6	
	3	10	4	2	3	7	5	4	
61	1	1	6	10	10	8	7	6	
	2	3	6	6	4	5	5	5	
	3	8	4	5	2	4	2	5	
62	1	1	7	8	6	10	5	8	
	2	5	7	4	6	10	5	8	
	3	8	5	4	5	10	5	8	
63	1	3	3	8	9	2	7	4	
	2	4	3	5	8	1	6	2	
	3	6	3	5	8	1	3	1	
64	1	3	2	7	9	9	7	9	
	2	4	2	7	8	9	5	8	
	3	5	1	6	8	8	4	7	
65	1	5	7	6	5	8	1	9	
	2	6	6	4	3	7	1	5	
	3	8	5	2	3	7	1	1	
66	1	5	2	1	2	3	7	7	
	2	8	1	1	1	3	5	6	
	3	10	1	1	1	3	2	6	
67	1	2	4	6	4	9	6	3	
	2	4	2	6	4	6	6	2	
	3	8	2	6	3	6	6	2	
68	1	3	7	9	6	2	8	9	
	2	4	6	6	4	2	8	6	
	3	10	5	6	4	1	8	5	
69	1	2	6	4	5	7	7	6	
	2	3	3	4	4	7	5	5	
	3	4	2	3	1	7	3	4	
70	1	5	10	9	7	4	10	3	
	2	6	5	4	6	2	9	3	
	3	8	3	2	6	1	8	3	
71	1	2	8	10	6	2	4	6	
	2	4	6	9	6	2	3	5	
	3	9	4	7	6	2	3	1	
72	1	1	6	9	4	5	9	3	
	2	4	6	9	3	5	8	2	
	3	5	6	9	3	5	7	2	
73	1	1	9	7	1	8	3	8	
	2	2	9	5	1	3	3	6	
	3	4	9	4	1	1	3	6	
74	1	8	5	5	7	9	10	7	
	2	9	2	4	7	9	9	5	
	3	10	1	4	7	9	8	5	
75	1	3	3	3	8	6	10	7	
	2	8	2	2	6	6	9	7	
	3	10	2	2	6	2	8	3	
76	1	2	8	8	6	10	7	4	
	2	3	6	6	4	8	5	4	
	3	5	4	4	2	8	3	2	
77	1	1	8	9	5	4	9	4	
	2	7	7	8	4	3	3	4	
	3	8	1	7	3	2	2	3	
78	1	4	8	2	6	9	5	6	
	2	8	5	1	5	7	5	4	
	3	9	1	1	4	6	5	2	
79	1	1	8	10	6	3	6	4	
	2	4	7	5	6	3	3	4	
	3	10	3	3	2	3	1	3	
80	1	3	5	7	8	9	6	5	
	2	4	5	7	5	8	4	5	
	3	10	4	7	4	5	3	5	
81	1	2	7	6	7	6	2	7	
	2	8	7	5	4	6	2	7	
	3	9	6	2	2	6	2	4	
82	1	2	8	6	8	6	3	5	
	2	6	7	4	5	4	3	5	
	3	7	7	4	3	4	3	5	
83	1	6	6	5	8	4	6	7	
	2	7	5	5	5	2	5	6	
	3	9	5	4	5	2	3	4	
84	1	4	8	8	8	5	1	8	
	2	9	7	5	6	5	1	5	
	3	10	5	4	5	5	1	5	
85	1	3	6	8	8	7	4	4	
	2	5	6	8	8	6	3	4	
	3	10	4	7	7	3	2	4	
86	1	3	6	9	3	8	5	5	
	2	6	3	9	3	8	4	5	
	3	7	1	9	1	8	3	4	
87	1	1	3	5	9	5	8	7	
	2	5	3	5	8	3	7	7	
	3	9	2	4	8	3	7	3	
88	1	2	6	3	5	6	5	6	
	2	5	6	3	5	5	5	5	
	3	9	5	2	1	5	4	5	
89	1	2	8	7	9	2	6	5	
	2	3	8	6	8	2	5	5	
	3	9	8	6	8	2	4	2	
90	1	7	8	4	5	9	4	7	
	2	9	6	4	4	9	2	5	
	3	10	4	3	3	8	2	3	
91	1	1	9	8	6	9	9	4	
	2	2	7	3	5	8	8	2	
	3	7	7	1	5	8	8	2	
92	1	6	7	5	8	6	6	9	
	2	9	6	4	7	6	5	7	
	3	10	6	4	3	4	1	7	
93	1	4	7	7	8	9	6	7	
	2	5	3	5	8	4	4	6	
	3	9	3	1	7	3	4	4	
94	1	6	5	7	10	7	7	6	
	2	8	5	6	8	4	5	6	
	3	9	4	3	7	4	4	5	
95	1	1	6	6	10	4	6	7	
	2	3	6	5	8	3	5	5	
	3	5	6	5	6	3	4	5	
96	1	3	9	2	3	8	4	9	
	2	7	8	2	2	8	2	5	
	3	10	7	2	2	8	1	2	
97	1	2	5	5	3	7	4	8	
	2	6	3	5	3	7	3	8	
	3	7	1	3	3	5	3	7	
98	1	3	9	8	6	10	7	8	
	2	7	8	5	5	5	7	8	
	3	8	5	3	4	5	5	8	
99	1	3	2	7	5	7	8	1	
	2	4	2	6	3	6	5	1	
	3	10	2	4	3	4	4	1	
100	1	3	9	5	4	8	7	8	
	2	5	9	5	4	6	6	4	
	3	6	9	5	4	6	6	3	
101	1	1	6	9	7	4	9	6	
	2	5	6	9	6	4	7	6	
	3	10	4	9	4	4	5	6	
102	1	0	0	0	0	0	0	0	
************************************************************************

 RESOURCE AVAILABILITIES 
	R 1	R 2	N 1	N 2	N 3	N 4
	39	36	476	498	481	479

************************************************************************
